50
2361 1032 3961 1550 666 4016 9180 8005 7652 2220 5367 2767 1727 1062 2145 9275 8290 8067 8005 1935 3099 6270 7319 8547 8801 868 6059 6718 5060 1778 4736 894 9346 8655 5477 3003 9089 5724 8824 8481 5084 4140 5990 4311 1614 3052 8126 433 464 6264 
2361 1032 3960 1548 666 4014 9180 8004 7650 2220 5367 2766 1725 1062 2145 9273 8289 8067 8004 1935 3099 6270 7317 8547 8799 867 6057 6717 5058 1776 4734 894 9345 8655 5475 3003 9087 5724 8823 8481 5082 4140 5988 4311 1614 3051 8124 432 462 6264 
122529
